(set-logic ALL)
(declare-const k Int)(declare-const x (_ BitVec k))
(declare-const s (_ BitVec k))
(declare-const t (_ BitVec k))
(define-fun lemma_UREM_REF9 ((x (_ BitVec k)) (s (_ BitVec k)) (t (_ BitVec k))) Bool (distinct (_ bv0 k) (bvand t (bvnot (bvor x s)))))
(assert (= t (bvurem x s)))
(assert (not (lemma_UREM_REF9 x s t)))
(check-sat)
